Input: forum-14.original.dzn
============================================================
Total Runtime: 18.4595 seconds
Input parsing: 0.0019 seconds
Constraint building: 1.7224 seconds
MaxSAT solving: 14.5098 seconds
============================================================

Total variables: 321490
Total clauses: 667132
MaxSAT found with cost: 2
SCHEDULE:
Meeting 1 → Time slot 17
Meeting 2 → Time slot 18
Meeting 3 → Time slot 7
Meeting 4 → Time slot 13
Meeting 5 → Time slot 8
Meeting 6 → Time slot 12
Meeting 7 → Time slot 14
Meeting 8 → Time slot 15
Meeting 9 → Time slot 14
Meeting 10 → Time slot 13
Meeting 11 → Time slot 14
Meeting 12 → Time slot 4
Meeting 13 → Time slot 10
Meeting 14 → Time slot 8
Meeting 15 → Time slot 12
Meeting 16 → Time slot 5
Meeting 17 → Time slot 9
Meeting 18 → Time slot 11
Meeting 19 → Time slot 6
Meeting 20 → Time slot 7
Meeting 21 → Time slot 7
Meeting 22 → Time slot 3
Meeting 23 → Time slot 9
Meeting 24 → Time slot 15
Meeting 25 → Time slot 7
Meeting 26 → Time slot 13
Meeting 27 → Time slot 11
Meeting 28 → Time slot 8
Meeting 29 → Time slot 11
Meeting 30 → Time slot 16
Meeting 31 → Time slot 12
Meeting 32 → Time slot 13
Meeting 33 → Time slot 17
Meeting 34 → Time slot 14
Meeting 35 → Time slot 7
Meeting 36 → Time slot 20
Meeting 37 → Time slot 8
Meeting 38 → Time slot 6
Meeting 39 → Time slot 12
Meeting 40 → Time slot 16
Meeting 41 → Time slot 5
Meeting 42 → Time slot 15
Meeting 43 → Time slot 10
Meeting 44 → Time slot 13
Meeting 45 → Time slot 5
Meeting 46 → Time slot 19
Meeting 47 → Time slot 7
Meeting 48 → Time slot 16
Meeting 49 → Time slot 17
Meeting 50 → Time slot 6
Meeting 51 → Time slot 10
Meeting 52 → Time slot 12
Meeting 53 → Time slot 10
Meeting 54 → Time slot 4
Meeting 55 → Time slot 5
Meeting 56 → Time slot 9
Meeting 57 → Time slot 11
Meeting 58 → Time slot 7
Meeting 59 → Time slot 6
Meeting 60 → Time slot 13
Meeting 61 → Time slot 7
Meeting 62 → Time slot 14
Meeting 63 → Time slot 9
Meeting 64 → Time slot 16
Meeting 65 → Time slot 15
Meeting 66 → Time slot 18
Meeting 67 → Time slot 14
Meeting 68 → Time slot 16
Meeting 69 → Time slot 14
Meeting 70 → Time slot 10
Meeting 71 → Time slot 8
Meeting 72 → Time slot 7
Meeting 73 → Time slot 9
Meeting 74 → Time slot 13
Meeting 75 → Time slot 15
Meeting 76 → Time slot 4
Meeting 77 → Time slot 5
Meeting 78 → Time slot 18
Meeting 79 → Time slot 14
Meeting 80 → Time slot 9
Meeting 81 → Time slot 7
Meeting 82 → Time slot 13
Meeting 83 → Time slot 15
Meeting 84 → Time slot 17
Meeting 85 → Time slot 11
Meeting 86 → Time slot 16
Meeting 87 → Time slot 3
Meeting 88 → Time slot 14
Meeting 89 → Time slot 6
Meeting 90 → Time slot 4
Meeting 91 → Time slot 5
Meeting 92 → Time slot 10
Meeting 93 → Time slot 11
Meeting 94 → Time slot 12
Meeting 95 → Time slot 11
Meeting 96 → Time slot 12
Meeting 97 → Time slot 9
Meeting 98 → Time slot 6
Meeting 99 → Time slot 8
Meeting 100 → Time slot 4
Meeting 101 → Time slot 3
Meeting 102 → Time slot 12
Meeting 103 → Time slot 7
Meeting 104 → Time slot 15
Meeting 105 → Time slot 9
Meeting 106 → Time slot 13
Meeting 107 → Time slot 8
Meeting 108 → Time slot 10
Meeting 109 → Time slot 14
Meeting 110 → Time slot 10
Meeting 111 → Time slot 15
Meeting 112 → Time slot 19
Meeting 113 → Time slot 13
Meeting 114 → Time slot 12
Meeting 115 → Time slot 4
Meeting 116 → Time slot 11
Meeting 117 → Time slot 5
Meeting 118 → Time slot 3
Meeting 119 → Time slot 12
Meeting 120 → Time slot 4
Meeting 121 → Time slot 10
Meeting 122 → Time slot 6
Meeting 123 → Time slot 2
Meeting 124 → Time slot 6
Meeting 125 → Time slot 10
Meeting 126 → Time slot 5
Meeting 127 → Time slot 7
Meeting 128 → Time slot 2
Meeting 129 → Time slot 12
Meeting 130 → Time slot 3
Meeting 131 → Time slot 9
Meeting 132 → Time slot 9
Meeting 133 → Time slot 16
Meeting 134 → Time slot 14
Meeting 135 → Time slot 20
Meeting 136 → Time slot 15
Meeting 137 → Time slot 11
Meeting 138 → Time slot 13
Meeting 139 → Time slot 18
Meeting 140 → Time slot 8
Meeting 141 → Time slot 19
Meeting 142 → Time slot 16
Meeting 143 → Time slot 13
Meeting 144 → Time slot 14
Meeting 145 → Time slot 11
Meeting 146 → Time slot 15
Meeting 147 → Time slot 10
Meeting 148 → Time slot 16
Meeting 149 → Time slot 17
Meeting 150 → Time slot 9
Meeting 151 → Time slot 13
Meeting 152 → Time slot 16
Meeting 153 → Time slot 8
Meeting 154 → Time slot 12
Meeting 155 → Time slot 17
Meeting 156 → Time slot 15
Meeting 157 → Time slot 9
Meeting 158 → Time slot 9
Meeting 159 → Time slot 5
Meeting 160 → Time slot 8
Meeting 161 → Time slot 7
Meeting 162 → Time slot 10
Meeting 163 → Time slot 17
Meeting 164 → Time slot 6
Meeting 165 → Time slot 15
Meeting 166 → Time slot 13
Meeting 167 → Time slot 19
Meeting 168 → Time slot 8
Meeting 169 → Time slot 21
Meeting 170 → Time slot 18
Meeting 171 → Time slot 11
Meeting 172 → Time slot 5
Meeting 173 → Time slot 4
Meeting 174 → Time slot 14
Meeting 175 → Time slot 2
Meeting 176 → Time slot 8
Meeting 177 → Time slot 15
Meeting 178 → Time slot 14
Meeting 179 → Time slot 13
Meeting 180 → Time slot 3
Meeting 181 → Time slot 4
Meeting 182 → Time slot 5
Meeting 183 → Time slot 19
Meeting 184 → Time slot 6
Meeting 185 → Time slot 7
Meeting 186 → Time slot 11
Meeting 187 → Time slot 19
Meeting 188 → Time slot 15
Meeting 189 → Time slot 17
Meeting 190 → Time slot 20
Meeting 191 → Time slot 12
Meeting 192 → Time slot 10
Meeting 193 → Time slot 18
Meeting 194 → Time slot 16
Meeting 195 → Time slot 11
Meeting 196 → Time slot 12
Meeting 197 → Time slot 13
Meeting 198 → Time slot 8
Meeting 199 → Time slot 15
Meeting 200 → Time slot 11
Meeting 201 → Time slot 13
Meeting 202 → Time slot 16
Meeting 203 → Time slot 18
Meeting 204 → Time slot 12
Meeting 205 → Time slot 17
Meeting 206 → Time slot 14
Meeting 207 → Time slot 9
Meeting 208 → Time slot 15
Meeting 209 → Time slot 13
Meeting 210 → Time slot 7
Meeting 211 → Time slot 11
Meeting 212 → Time slot 6
Meeting 213 → Time slot 10
Meeting 214 → Time slot 14
Meeting 215 → Time slot 12
Meeting 216 → Time slot 8
Meeting 217 → Time slot 5
Meeting 218 → Time slot 22
Meeting 219 → Time slot 20
Meeting 220 → Time slot 9
Meeting 221 → Time slot 7
Meeting 222 → Time slot 17
Meeting 223 → Time slot 5
Meeting 224 → Time slot 6
Meeting 225 → Time slot 10
Meeting 226 → Time slot 21
Meeting 227 → Time slot 12
Meeting 228 → Time slot 19
Meeting 229 → Time slot 15
Meeting 230 → Time slot 13
Meeting 231 → Time slot 1
Meeting 232 → Time slot 14
Meeting 233 → Time slot 4
Meeting 234 → Time slot 2
Meeting 235 → Time slot 11
Meeting 236 → Time slot 18
Meeting 237 → Time slot 3
Meeting 238 → Time slot 16
Meeting 239 → Time slot 8
Meeting 240 → Time slot 6
Meeting 241 → Time slot 18
Meeting 242 → Time slot 16
Meeting 243 → Time slot 17
Meeting 244 → Time slot 12
Meeting 245 → Time slot 13
Meeting 246 → Time slot 8
Meeting 247 → Time slot 7
Meeting 248 → Time slot 9
Meeting 249 → Time slot 10
Meeting 250 → Time slot 14
Meeting 251 → Time slot 6
Meeting 252 → Time slot 11
Meeting 253 → Time slot 10
Meeting 254 → Time slot 11
Meeting 255 → Time slot 6
Meeting 256 → Time slot 7
Meeting 257 → Time slot 8
Meeting 258 → Time slot 9
Meeting 259 → Time slot 11
Meeting 260 → Time slot 3
Meeting 261 → Time slot 5
Meeting 262 → Time slot 4
Meeting 263 → Time slot 2
Meeting 264 → Time slot 7
Meeting 265 → Time slot 1
Meeting 266 → Time slot 12
Meeting 267 → Time slot 8
Meeting 268 → Time slot 6
Meeting 269 → Time slot 10
Meeting 270 → Time slot 9
Meeting 271 → Time slot 9
Meeting 272 → Time slot 6
Meeting 273 → Time slot 7
Meeting 274 → Time slot 10
Meeting 275 → Time slot 8
Meeting 276 → Time slot 12
Meeting 277 → Time slot 6
Meeting 278 → Time slot 11
Meeting 279 → Time slot 5
Meeting 280 → Time slot 8
Meeting 281 → Time slot 9
Meeting 282 → Time slot 10
Meeting 283 → Time slot 7
Meeting 284 → Time slot 14
Meeting 285 → Time slot 11
Meeting 286 → Time slot 12
Meeting 287 → Time slot 13
Meeting 288 → Time slot 10
Meeting 289 → Time slot 8
Meeting 290 → Time slot 9
Meeting 291 → Time slot 10
Meeting 292 → Time slot 11
Meeting 293 → Time slot 3
Meeting 294 → Time slot 12
Meeting 295 → Time slot 1
Meeting 296 → Time slot 2
Meeting 297 → Time slot 9
Meeting 298 → Time slot 8
Meeting 299 → Time slot 5
Meeting 300 → Time slot 4
Meeting 301 → Time slot 7
Meeting 302 → Time slot 6
Checking hard constraints...
All hard constraints are satisfied
